% File represents an instance of a Composite Structure problem to be solved by a CP framework
% Created on 2025-03-26 10:41:15.409
T = 56;
n = 9;
m = 12;
edges = [(2, 1),
(5, 4),
(8, 7),
(3, 2),
(6, 5),
(8, 9),
(1, 4),
(7, 4),
(2, 5),
(8, 5),
(3, 6),
(6, 9)];
counts = [|10, 10, 10, 14,
|10, 12, 10, 18,
|12, 14, 12, 18,
|10, 10, 10, 12,
|10, 12, 10, 16,
|12, 12, 12, 18,
|10, 10, 10, 18,
|10, 12, 10, 18,
|10, 10, 10, 18|];
